NAME : a280
COMMENT : Algorithm MST(+2opt)
COMMENT : Length 2908 
COMMENT : Elapsed time 0.004490 seconds
COMMENT : 2-opt iterations 80
TYPE : TOUR
DIMENSION : 280
TOUR_SECTION
1
2
280
3
279
278
248
243
242
241
240
239
238
237
236
235
234
233
232
231
246
245
244
247
249
250
251
230
229
228
227
226
225
224
223
222
221
220
219
218
217
215
214
211
210
212
213
216
205
206
207
208
209
252
255
256
253
254
257
258
259
260
261
262
263
270
269
268
267
264
265
266
140
139
138
137
136
135
134
133
132
131
130
129
154
155
153
156
152
151
178
150
149
148
141
142
147
146
143
204
203
202
200
144
145
199
198
201
196
195
194
197
193
192
191
190
189
188
187
186
185
184
183
182
180
179
181
176
177
160
175
161
162
163
164
165
166
167
168
169
101
100
99
98
97
96
95
94
93
92
102
103
91
90
80
79
78
77
76
75
74
73
72
71
70
66
67
69
68
58
57
44
45
56
55
54
46
47
53
52
51
50
49
48
38
37
36
35
39
40
41
42
43
60
61
118
62
59
63
64
65
116
86
85
84
87
113
112
88
83
82
81
89
109
104
105
170
171
172
173
174
107
106
108
110
111
114
115
117
159
158
157
119
120
121
122
123
124
34
33
32
28
27
26
22
25
23
24
29
31
30
125
126
127
128
21
20
19
18
17
16
271
272
273
274
275
277
276
15
14
13
12
11
10
9
8
7
6
5
4
1
EOF
